NAME : mtspf.pid4640.gtsp.80530711.tour
COMMENT : Length = 80530711
COMMENT : Found by LKH [Keld Helsgaun] Thu Feb  6 04:34:19 2025
TYPE : TOUR
DIMENSION : 45
TOUR_SECTION
1
4
20
21
18
19
24
25
22
23
29
26
27
28
40
41
38
39
9
6
7
8
34
35
36
37
5
2
30
31
32
33
3
12
13
10
11
17
14
15
16
45
42
43
44
-1
EOF
